p edge 50 633 20
v 1 5
v 5 2 7 28 29 42
v 2 10 12
v 2 1 16
v 3 25 32 46
v 3 13 35 36
v 1 18
v 1 37
v 4 8 27 30 38
v 1 49
v 2 4 34
v 2 24 40
v 6 14 20 21 23 39 43
v 3 3 6 9
v 2 31 48
v 1 50
v 3 22 26 44
v 3 15 19 45
v 1 33
v 4 11 17 41 47
e 1 3
e 1 5
e 1 6
e 1 7
e 1 8
e 1 9
e 1 10
e 1 11
e 1 16
e 1 19
e 1 21
e 1 22
e 1 28
e 1 30
e 1 32
e 1 34
e 1 35
e 1 36
e 1 37
e 1 38
e 1 40
e 1 41
e 1 42
e 1 43
e 1 48
e 2 4
e 2 6
e 2 9
e 2 10
e 2 11
e 2 12
e 2 13
e 2 16
e 2 17
e 2 18
e 2 22
e 2 23
e 2 25
e 2 26
e 2 28
e 2 30
e 2 32
e 2 33
e 2 36
e 2 39
e 2 44
e 2 45
e 2 47
e 2 48
e 2 49
e 3 5
e 3 6
e 3 10
e 3 11
e 3 14
e 3 15
e 3 16
e 3 17
e 3 19
e 3 22
e 3 24
e 3 26
e 3 27
e 3 30
e 3 37
e 3 38
e 3 39
e 3 40
e 3 42
e 3 44
e 3 46
e 3 49
e 4 6
e 4 9
e 4 10
e 4 11
e 4 12
e 4 13
e 4 14
e 4 15
e 4 17
e 4 20
e 4 24
e 4 25
e 4 26
e 4 29
e 4 30
e 4 31
e 4 32
e 4 33
e 4 35
e 4 37
e 4 38
e 4 40
e 4 42
e 4 43
e 4 44
e 4 45
e 5 7
e 5 9
e 5 12
e 5 13
e 5 14
e 5 15
e 5 16
e 5 17
e 5 18
e 5 19
e 5 21
e 5 22
e 5 23
e 5 25
e 5 28
e 5 31
e 5 34
e 5 36
e 5 42
e 5 44
e 5 45
e 5 46
e 5 47
e 5 50
e 6 7
e 6 8
e 6 9
e 6 11
e 6 12
e 6 14
e 6 17
e 6 18
e 6 19
e 6 20
e 6 21
e 6 22
e 6 23
e 6 24
e 6 25
e 6 27
e 6 28
e 6 30
e 6 32
e 6 35
e 6 39
e 6 40
e 6 41
e 6 42
e 6 43
e 6 46
e 6 47
e 6 49
e 7 9
e 7 12
e 7 14
e 7 15
e 7 16
e 7 18
e 7 19
e 7 20
e 7 23
e 7 24
e 7 27
e 7 29
e 7 32
e 7 33
e 7 35
e 7 36
e 7 39
e 7 40
e 7 42
e 7 43
e 7 44
e 7 45
e 7 47
e 7 48
e 7 50
e 8 9
e 8 10
e 8 11
e 8 12
e 8 14
e 8 17
e 8 18
e 8 19
e 8 20
e 8 21
e 8 23
e 8 24
e 8 25
e 8 26
e 8 27
e 8 33
e 8 36
e 8 38
e 8 41
e 8 42
e 8 45
e 8 46
e 8 48
e 9 14
e 9 15
e 9 16
e 9 17
e 9 22
e 9 24
e 9 25
e 9 26
e 9 31
e 9 33
e 9 38
e 9 40
e 9 42
e 9 43
e 9 44
e 9 48
e 10 11
e 10 14
e 10 18
e 10 19
e 10 21
e 10 27
e 10 28
e 10 31
e 10 32
e 10 33
e 10 34
e 10 39
e 10 40
e 10 42
e 10 44
e 10 45
e 10 48
e 10 49
e 11 12
e 11 14
e 11 15
e 11 19
e 11 20
e 11 21
e 11 26
e 11 27
e 11 29
e 11 32
e 11 34
e 11 35
e 11 36
e 11 38
e 11 41
e 11 42
e 11 44
e 11 46
e 11 47
e 11 48
e 12 16
e 12 17
e 12 18
e 12 19
e 12 20
e 12 21
e 12 22
e 12 23
e 12 26
e 12 29
e 12 30
e 12 38
e 12 39
e 12 40
e 12 41
e 12 42
e 12 44
e 12 47
e 13 14
e 13 16
e 13 19
e 13 23
e 13 24
e 13 26
e 13 27
e 13 28
e 13 32
e 13 37
e 13 38
e 13 39
e 13 40
e 13 42
e 13 48
e 13 49
e 13 50
e 14 15
e 14 17
e 14 18
e 14 19
e 14 20
e 14 21
e 14 22
e 14 23
e 14 24
e 14 25
e 14 26
e 14 30
e 14 31
e 14 35
e 14 38
e 14 39
e 14 40
e 14 42
e 14 45
e 14 46
e 14 47
e 14 48
e 14 49
e 15 17
e 15 18
e 15 20
e 15 21
e 15 22
e 15 23
e 15 26
e 15 27
e 15 28
e 15 30
e 15 31
e 15 32
e 15 34
e 15 36
e 15 37
e 15 38
e 15 42
e 15 43
e 15 44
e 15 45
e 15 48
e 15 50
e 16 17
e 16 22
e 16 23
e 16 24
e 16 25
e 16 26
e 16 27
e 16 31
e 16 32
e 16 33
e 16 34
e 16 36
e 16 37
e 16 38
e 16 39
e 16 40
e 16 41
e 16 42
e 16 43
e 16 44
e 16 46
e 16 47
e 16 48
e 16 49
e 16 50
e 17 24
e 17 25
e 17 26
e 17 29
e 17 32
e 17 34
e 17 36
e 17 37
e 17 39
e 17 40
e 17 42
e 17 43
e 17 46
e 17 48
e 17 50
e 18 20
e 18 22
e 18 23
e 18 26
e 18 30
e 18 32
e 18 33
e 18 36
e 18 37
e 18 38
e 18 39
e 18 40
e 18 45
e 18 46
e 18 48
e 19 20
e 19 26
e 19 27
e 19 31
e 19 34
e 19 35
e 19 36
e 19 38
e 19 39
e 19 40
e 19 43
e 19 44
e 19 45
e 19 47
e 19 48
e 19 49
e 19 50
e 20 21
e 20 23
e 20 25
e 20 26
e 20 27
e 20 31
e 20 33
e 20 36
e 20 38
e 20 39
e 20 40
e 20 41
e 20 43
e 20 47
e 20 48
e 20 50
e 21 24
e 21 28
e 21 30
e 21 32
e 21 33
e 21 37
e 21 38
e 21 41
e 21 43
e 21 44
e 21 45
e 21 46
e 21 49
e 22 26
e 22 29
e 22 30
e 22 31
e 22 35
e 22 37
e 22 38
e 22 41
e 22 43
e 22 44
e 22 45
e 22 46
e 22 47
e 22 48
e 22 49
e 22 50
e 23 25
e 23 30
e 23 31
e 23 37
e 23 39
e 23 40
e 23 44
e 23 45
e 24 25
e 24 29
e 24 32
e 24 33
e 24 40
e 24 43
e 24 44
e 24 46
e 24 48
e 24 49
e 25 26
e 25 27
e 25 28
e 25 29
e 25 30
e 25 31
e 25 32
e 25 34
e 25 35
e 25 36
e 25 37
e 25 38
e 25 44
e 25 46
e 25 48
e 25 49
e 25 50
e 26 27
e 26 28
e 26 30
e 26 35
e 26 38
e 26 42
e 26 44
e 26 45
e 26 47
e 26 48
e 27 28
e 27 31
e 27 33
e 27 35
e 27 36
e 27 38
e 27 47
e 27 48
e 27 49
e 27 50
e 28 29
e 28 33
e 28 34
e 28 35
e 28 38
e 28 40
e 28 45
e 28 49
e 28 50
e 29 30
e 29 32
e 29 33
e 29 35
e 29 39
e 29 46
e 29 47
e 29 49
e 29 50
e 30 31
e 30 32
e 30 35
e 30 37
e 30 38
e 30 39
e 30 40
e 30 41
e 30 44
e 30 45
e 30 46
e 30 48
e 30 49
e 31 32
e 31 36
e 31 40
e 31 41
e 31 43
e 31 47
e 31 50
e 32 33
e 32 35
e 32 37
e 32 39
e 32 40
e 32 41
e 32 44
e 32 46
e 32 47
e 32 50
e 33 34
e 33 36
e 33 37
e 33 38
e 33 40
e 33 41
e 33 45
e 33 46
e 33 48
e 33 50
e 34 35
e 34 37
e 34 39
e 34 41
e 34 47
e 34 49
e 35 37
e 35 39
e 35 40
e 35 41
e 35 43
e 35 45
e 35 48
e 35 50
e 36 37
e 36 38
e 36 40
e 36 41
e 36 42
e 36 43
e 36 47
e 36 48
e 37 39
e 37 41
e 37 42
e 37 44
e 37 45
e 37 46
e 37 48
e 37 49
e 37 50
e 38 44
e 38 45
e 38 46
e 38 47
e 38 48
e 39 40
e 39 41
e 39 42
e 39 43
e 39 44
e 39 46
e 39 47
e 39 50
e 40 44
e 40 47
e 40 50
e 41 43
e 41 45
e 41 48
e 41 49
e 41 50
e 42 45
e 42 48
e 43 46
e 43 48
e 43 49
e 43 50
e 44 45
e 44 47
e 44 48
e 45 47
e 45 48
e 46 48
e 46 49
e 46 50
e 47 49
e 47 50
e 48 49
e 48 50
e 49 50
